
Gurobi 13.0.1 (win64) logging started Fri Apr 10 03:54:48 2026

Set parameter LogFile to value "C:\Users\jiho\code\cloud_vmp_optimization\experiments\2604-chance-2sp-toy\results\runs\chance_2sp_toy_24vm_combination_od_sp_od12_sp12_bj0_sc10_cap8_avg20_lam010\solver.log"
Set parameter Threads to value 8
Gurobi Optimizer version 13.0.1 build v13.0.1rc0 (win64 - Windows 11+.0 (26200.2))

CPU model: 13th Gen Intel(R) Core(TM) i9-13900K, instruction set [SSE2|AVX|AVX2]
Thread count: 24 physical cores, 32 logical processors, using up to 8 threads

Non-default parameters:
TimeLimit  7200
MIPGap  0.001
Threads  8

Optimize a model with 68423 rows, 31876 columns and 278142 nonzeros (Min)
Model fingerprint: 0x6340257e
Model has 284 linear objective coefficients
Variable types: 1920 continuous, 29956 integer (29956 binary)
Coefficient statistics:
  Matrix range     [5e-02, 4e+01]
  Objective range  [8e-03, 1e+00]
  Bounds range     [1e+00, 1e+00]
  RHS range        [1e-01, 2e+01]

Presolve removed 6240 rows and 4032 columns
Presolve time: 0.48s
Presolved: 62183 rows, 27844 columns, 265662 nonzeros
Variable types: 0 continuous, 27844 integer (27844 binary)

Deterministic concurrent LP optimizer: primal and dual simplex (primal and dual model)
Showing primal log only...

Root relaxation presolved: 62183 rows, 27844 columns, 265662 nonzeros


Root simplex log...

Iteration    Objective       Primal Inf.    Dual Inf.      Time
   18524    7.4195173e+00   0.000000e+00   1.032338e+02      5s
   24912    4.1461672e+00   0.000000e+00   1.182997e+03     10s
   28492    3.3673501e+00   0.000000e+00   2.854240e+04     15s
   31062    3.1359958e+00   0.000000e+00   1.374998e+03     20s
   33902    2.9469019e+00   0.000000e+00   1.411894e+03     25s
   36322    2.8204918e+00   0.000000e+00   2.536866e+03     30s
   38482    2.7200425e+00   0.000000e+00   8.903818e+02     35s
   40562    2.6422704e+00   0.000000e+00   2.028522e+03     40s
   42652    2.5839910e+00   0.000000e+00   1.340926e+04     45s
   44972    2.5138261e+00   0.000000e+00   3.483559e+03     50s
   46992    2.4565348e+00   0.000000e+00   1.642404e+04     55s
   49272    2.4025182e+00   0.000000e+00   2.493738e+03     60s
   51372    2.3218814e+00   0.000000e+00   1.210325e+03     65s
   53482    2.2657931e+00   0.000000e+00   3.478253e+02     70s
   55742    2.1781320e+00   0.000000e+00   5.917508e+02     75s
   58152    2.1144336e+00   0.000000e+00   5.961223e+02     80s
   60562    2.0314762e+00   0.000000e+00   2.286764e+02     85s
   62902    1.9531207e+00   0.000000e+00   2.208492e+02     90s
   65392    1.8987298e+00   0.000000e+00   5.446481e+03     95s
   67822    1.8578814e+00   0.000000e+00   1.229494e+03    100s
   70092    1.8029777e+00   0.000000e+00   2.879364e+02    105s
   72262    1.7704476e+00   0.000000e+00   7.138194e+02    110s
   74272    1.7399373e+00   0.000000e+00   2.907057e+03    115s
   76312    1.7003071e+00   0.000000e+00   7.286192e+02    120s
   78292    1.6611499e+00   0.000000e+00   4.080253e+02    125s
Concurrent spin time: 34.02s (can be avoided by choosing Method=3)

Solved with primal simplex

Root relaxation: objective 1.000000e+00, 104498 iterations, 160.73 seconds (130.10 work units)

    Nodes    |    Current Node    |     Objective Bounds      |     Work
 Expl Unexpl |  Obj  Depth IntInf | Incumbent    BestBd   Gap | It/Node Time

     0     0    1.00000    0 25020          -    1.00000      -     -  612s
     0     0    2.24608    0 26602          -    2.24608      -     -  986s
H    0     0                       8.1666667    2.24608  72.5%     - 1000s
H    0     0                       8.1416667    2.24608  72.4%     - 1000s
H    0     0                       8.0833333    2.24608  72.2%     - 1000s
H    0     0                       8.0666667    2.24608  72.2%     - 1000s
H    0     0                       8.0500000    2.24608  72.1%     - 1000s
H    0     0                       8.0416667    2.24608  72.1%     - 1000s
H    0     0                       8.0250000    2.24608  72.0%     - 1000s
H    0     0                       8.0166667    2.24608  72.0%     - 1000s
H    0     0                       8.0000000    2.24608  71.9%     - 1000s
H    0     0                       7.0333333    2.36867  66.3%     - 1171s
H    0     0                       7.0000000    2.36867  66.2%     - 1171s
     0     0    2.39387    0 18116    7.00000    2.39387  65.8%     - 1270s
H    0     0                       6.0333333    2.63495  56.3%     - 1572s
H    0     0                       6.0083333    2.63495  56.1%     - 1572s
H    0     0                       6.0000000    2.63495  56.1%     - 1572s
H    0     0                       5.1916667    2.63495  49.2%     - 1572s
H    0     0                       5.1750000    2.63495  49.1%     - 1572s
     0     0    3.00000    0 15714    5.17500    3.00000  42.0%     - 1760s
     0     0    3.00000    0 15193    5.17500    3.00000  42.0%     - 1907s
     0     0    3.00000    0 15575    5.17500    3.00000  42.0%     - 2089s
     0     0    3.00000    0 15102    5.17500    3.00000  42.0%     - 2308s
     0     0    3.00000    0 14695    5.17500    3.00000  42.0%     - 2588s
     0     0    3.00000    0 15290    5.17500    3.00000  42.0%     - 2701s
     0     0    3.00000    0 14842    5.17500    3.00000  42.0%     - 2742s
     0     0    3.00000    0 14535    5.17500    3.00000  42.0%     - 2890s
     0     0    3.00000    0 14922    5.17500    3.00000  42.0%     - 3055s
     0     0    3.47760    0 15828    5.17500    3.47760  32.8%     - 3206s
H    0     0                       5.1666667    3.47760  32.7%     - 3254s
H    0     0                       5.1583333    3.47760  32.6%     - 3254s
     0     0    4.00000    0 15366    5.15833    4.00000  22.5%     - 3254s
     0     0    4.00000    0 15071    5.15833    4.00000  22.5%     - 3287s
     0     0    4.00000    0 14724    5.15833    4.00000  22.5%     - 3459s
H    0     0                       5.1500000    4.00000  22.3%     - 3459s
     0     0    4.00000    0 14753    5.15000    4.00000  22.3%     - 3550s
     0     0    4.00000    0 15175    5.15000    4.00000  22.3%     - 3609s
     0     0    4.00000    0 15235    5.15000    4.00000  22.3%     - 3642s
     0     0    4.00000    0 13889    5.15000    4.00000  22.3%     - 3779s
     0     0    4.00000    0 13778    5.15000    4.00000  22.3%     - 3906s
     0     0    4.00000    0 13946    5.15000    4.00000  22.3%     - 3982s
     0     0    4.00000    0 13917    5.15000    4.00000  22.3%     - 4016s
     0     0    4.00000    0 15044    5.15000    4.00000  22.3%     - 4185s
     0     0    4.00000    0 15432    5.15000    4.00000  22.3%     - 4316s
     0     0    4.00000    0 15005    5.15000    4.00000  22.3%     - 4378s
     0     0    4.00000    0 15019    5.15000    4.00000  22.3%     - 4422s
     0     0    4.00000    0 15018    5.15000    4.00000  22.3%     - 4508s
     0     0    4.00000    0 15500    5.15000    4.00000  22.3%     - 4567s
     0     0    4.00000    0 15637    5.15000    4.00000  22.3%     - 4593s
     0     0    4.00000    0 14600    5.15000    4.00000  22.3%     - 4650s
     0     0    4.00000    0 14940    5.15000    4.00000  22.3%     - 4704s
     0     0    4.00000    0 14951    5.15000    4.00000  22.3%     - 4724s
     0     0    4.00000    0 15004    5.15000    4.00000  22.3%     - 4788s
     0     0    4.00000    0 14990    5.15000    4.00000  22.3%     - 4789s
     0     0    4.00000    0 14755    5.15000    4.00000  22.3%     - 4795s
H    0     2                       5.1416667    4.00000  22.2%     - 5247s
     0     2    4.00000    0 14750    5.14167    4.00000  22.2%     - 5247s
     1     2 infeasible    1         5.14167    4.00000  22.2%  6390 5420s
     3     3    5.00000    2 8708    5.14167    4.00000  22.2% 41794 5481s
     4     6    5.00000    3 6411    5.14167    4.00000  22.2% 32885 5649s
     7    10    5.00000    4 5944    5.14167    4.00000  22.2% 31450 5690s
    13    18    5.00000    5 5111    5.14167    4.00000  22.2% 20735 5722s
    21    54    5.00000    6 5471    5.14167    4.00000  22.2% 14607 5739s
    57    84    5.00000   11 4149    5.14167    4.00000  22.2%  5962 5744s
    87   102    5.00000   16 3720    5.14167    4.00000  22.2%  4100 5747s
   105   113    5.00000   21 1332    5.14167    4.00000  22.2%  3518 5753s
   116   122    5.00000   22 1266    5.14167    4.00000  22.2%  3233 5759s
   125   133    5.00000   24 1420    5.14167    4.00000  22.2%  3064 5765s
   136   148    5.00000   25 1411    5.14167    4.00000  22.2%  2862 5773s
   151   274    5.00000   26 1400    5.14167    4.00000  22.2%  2697 5790s
   277   493    5.00000   40 1597    5.14167    4.00000  22.2%  2029 5805s
   508   680    5.01667   69  255    5.14167    4.00000  22.2%  1344 5811s
   721   805    5.05039  104 1235    5.14167    4.00000  22.2%  1103 5819s
   882   881    4.01492   37 2505    5.14167    4.00000  22.2%  1023 5826s
   992   908    4.02384   39 2267    5.14167    4.00000  22.2%   988 5839s
  1043   932    4.03213   41 2356    5.14167    4.00000  22.2%  1051 5845s
  1069   953    4.03711   42 1685    5.14167    4.00000  22.2%  1100 5858s
  1100   981    4.06258   48 1831    5.14167    4.00000  22.2%  1161 5869s
  1134  1015    4.08206   53 1762    5.14167    4.00000  22.2%  1230 5878s
  1174  1047    4.12751   60 1746    5.14167    4.00000  22.2%  1286 5890s
  1212  1078    4.14524   62 1728    5.14167    4.00000  22.2%  1344 5901s
  1266  1104    4.33513   67 1439    5.14167    4.00000  22.2%  1381 5919s
  1303  1153    4.00000   27 4349    5.14167    4.00000  22.2%  1448 5927s
  1358  1196    4.00000   28 4211    5.14167    4.00000  22.2%  1466 5938s
  1425  1242    4.00000   30 4156    5.14167    4.00000  22.2%  1468 5959s
  1499  1286    4.00000   33 4235    5.14167    4.00000  22.2%  1481 5972s
  1555  1330    4.00000   35 4130    5.14167    4.00000  22.2%  1494 5986s
  1617  1349    4.00028   38 4512    5.14167    4.00000  22.2%  1522 6000s
  1640  1412    4.00032   39 4565    5.14167    4.00000  22.2%  1575 6010s
  1704  1413    4.07504   85 15193    5.14167    4.00000  22.2%  1582 6991s

Explored 1705 nodes (4209144 simplex iterations) in 7200.11 seconds (4493.98 work units)
Thread count was 8 (of 32 available processors)

Solution count 10: 5.14167 5.15 5.15833 ... 7

Time limit reached
Best objective 5.141666666667e+00, best bound 4.000000000000e+00, gap 22.2042%
